c Result of efficient AIG-to-CNF conversion using package CNF
p cnf 265 831
-2 3 171 180 196 0
-2 -3 -171 180 196 0
2 -180 0
2 -3 171 0
2 -196 0
2 3 -171 0
3 -4 43 0
3 43 144 -149 0
-3 -43 0
-3 4 149 0
-3 4 -144 0
4 260 5 -28 0
4 -260 5 -16 0
-4 -5 0
-4 260 28 0
-4 -260 16 0
-5 6 12 14 15 0
5 -15 0
5 -6 0
5 -14 0
5 -12 0
-6 257 258 7 9 0
6 -257 0
6 -9 0
6 -7 0
6 -258 0
-7 249 255 256 8 0
7 -8 0
7 -256 0
7 -249 0
7 -255 0
-8 253 254 259 0
8 -253 0
8 -259 0
8 -254 0
-9 245 246 10 11 0
9 -245 0
9 -11 0
9 -10 0
9 -246 0
-10 250 251 252 0
10 -250 0
10 -252 0
10 -251 0
-11 241 242 247 248 0
11 -248 0
11 -247 0
11 -241 0
11 -242 0
-12 239 243 244 13 0
12 -13 0
12 -244 0
12 -239 0
12 -243 0
-13 237 238 0
13 -237 0
13 -238 0
-14 233 240 0
14 -233 0
14 -240 0
-15 234 235 236 0
15 -234 0
15 -236 0
15 -235 0
16 -261 -17 0
16 261 -21 0
-16 261 21 0
-16 -261 17 0
17 262 -18 0
-17 -262 0
-17 18 0
18 263 -19 0
18 -263 -20 0
-18 -263 20 0
-18 263 19 0
19 -204 264 0
19 -203 -264 0
-19 204 264 0
-19 203 -264 0
20 -202 264 0
20 -201 -264 0
-20 202 264 0
-20 201 -264 0
21 -262 -22 0
21 262 -25 0
-21 262 25 0
-21 -262 22 0
22 263 -23 0
22 -263 -24 0
-22 -263 24 0
-22 263 23 0
23 -208 264 0
23 -207 -264 0
-23 208 264 0
-23 207 -264 0
24 -206 264 0
24 -205 -264 0
-24 206 264 0
-24 205 -264 0
25 263 -26 0
25 -263 -27 0
-25 -263 27 0
-25 263 26 0
26 -212 264 0
26 -211 -264 0
-26 212 264 0
-26 211 -264 0
27 -210 264 0
27 -209 -264 0
-27 210 264 0
-27 209 -264 0
-28 -261 29 0
-28 261 36 0
28 -261 -29 0
28 261 -36 0
29 262 -30 0
29 -262 -33 0
-29 -262 33 0
-29 262 30 0
30 263 -31 0
30 -263 -32 0
-30 -263 32 0
-30 263 31 0
31 -220 264 0
31 -219 -264 0
-31 220 264 0
-31 219 -264 0
32 -218 264 0
32 -217 -264 0
-32 218 264 0
-32 217 -264 0
33 263 -34 0
33 -263 -35 0
-33 -263 35 0
-33 263 34 0
34 -216 264 0
34 -215 -264 0
-34 216 264 0
-34 215 -264 0
35 -214 264 0
35 -213 -264 0
-35 214 264 0
-35 213 -264 0
-36 262 40 0
-36 -262 37 0
36 -262 -37 0
36 262 -40 0
37 -263 -38 0
37 263 -39 0
-37 263 39 0
-37 -263 38 0
38 -222 264 0
38 -221 -264 0
-38 222 264 0
-38 221 -264 0
39 -224 264 0
39 -223 -264 0
-39 224 264 0
-39 223 -264 0
40 -263 -41 0
40 263 -42 0
-40 263 42 0
-40 -263 41 0
41 -226 264 0
41 -225 -264 0
-41 226 264 0
-41 225 -264 0
42 -228 264 0
42 -227 -264 0
-42 228 264 0
-42 227 -264 0
-43 44 79 96 113 0
43 -113 0
43 -44 0
43 -96 0
43 -79 0
-44 45 67 0
44 -45 0
44 -67 0
45 260 -46 5 0
45 -260 5 -61 0
-45 -5 0
-45 -260 61 0
-45 260 46 0
46 261 -47 0
46 -261 -54 0
-46 -261 54 0
-46 261 47 0
47 262 -48 0
47 -262 -51 0
-47 -262 51 0
-47 262 48 0
48 263 -49 0
48 -263 -50 0
-48 -263 50 0
-48 263 49 0
49 -221 264 0
49 -220 -264 0
-49 221 264 0
-49 220 -264 0
50 -219 264 0
50 -218 -264 0
-50 219 264 0
-50 218 -264 0
51 263 -52 0
51 -263 -53 0
-51 -263 53 0
-51 263 52 0
52 -217 264 0
52 -216 -264 0
-52 217 264 0
-52 216 -264 0
53 -215 264 0
53 -214 -264 0
-53 215 264 0
-53 214 -264 0
54 262 -55 0
54 -262 -58 0
-54 -262 58 0
-54 262 55 0
55 263 -56 0
55 -263 -57 0
-55 -263 57 0
-55 263 56 0
56 -213 264 0
56 -212 -264 0
-56 213 264 0
-56 212 -264 0
57 -211 264 0
57 -210 -264 0
-57 211 264 0
-57 210 -264 0
58 263 -59 0
58 -263 -60 0
-58 -263 60 0
-58 263 59 0
59 -209 264 0
59 -208 -264 0
-59 209 264 0
-59 208 -264 0
60 -207 264 0
60 -206 -264 0
-60 207 264 0
-60 206 -264 0
61 261 -62 0
-61 -261 0
-61 62 0
62 262 -63 0
62 -262 -66 0
-62 -262 66 0
-62 262 63 0
63 263 -64 0
63 -263 -65 0
-63 -263 65 0
-63 263 64 0
64 -205 264 0
64 -204 -264 0
-64 205 264 0
-64 204 -264 0
65 -203 264 0
65 -202 -264 0
-65 203 264 0
-65 202 -264 0
66 -201 263 264 0
-66 201 0
-66 -264 0
-66 -263 0
67 -260 5 -75 0
67 260 5 -68 0
-67 -5 0
-67 -260 75 0
-67 260 68 0
68 261 -69 0
68 -261 -72 0
-68 -261 72 0
-68 261 69 0
69 262 -70 0
69 -262 -71 0
-69 -262 71 0
-69 262 70 0
70 263 -38 0
70 -263 -31 0
-70 -263 31 0
-70 263 38 0
71 263 -32 0
71 -263 -34 0
-71 -263 34 0
-71 263 32 0
72 262 -73 0
72 -262 -74 0
-72 -262 74 0
-72 262 73 0
73 263 -35 0
73 -263 -26 0
-73 -263 26 0
-73 263 35 0
74 263 -27 0
74 -263 -23 0
-74 -263 23 0
-74 263 27 0
75 261 -76 0
-75 -261 0
-75 76 0
76 262 -77 0
76 -262 -78 0
-76 -262 78 0
-76 262 77 0
77 263 -24 0
77 -263 -19 0
-77 -263 19 0
-77 263 24 0
78 -201 263 -264 0
78 -202 263 264 0
-78 -263 0
-78 201 -264 0
-78 202 264 0
79 -260 5 -90 0
79 260 5 -80 0
-79 -5 0
-79 -260 90 0
-79 260 80 0
-80 261 81 0
-80 -261 87 0
80 -261 -87 0
80 261 -81 0
-81 262 84 0
-81 -262 82 0
81 -262 -82 0
81 262 -84 0
82 -263 -49 0
82 263 -83 0
-82 263 83 0
-82 -263 49 0
83 -223 264 0
83 -222 -264 0
-83 223 264 0
-83 222 -264 0
84 263 -85 0
84 -263 -86 0
-84 -263 86 0
-84 263 85 0
85 -227 264 0
85 -226 -264 0
-85 227 264 0
-85 226 -264 0
86 -225 264 0
86 -224 -264 0
-86 225 264 0
-86 224 -264 0
87 262 -88 0
87 -262 -89 0
-87 -262 89 0
-87 262 88 0
88 263 -50 0
88 -263 -52 0
-88 -263 52 0
-88 263 50 0
89 263 -53 0
89 -263 -56 0
-89 -263 56 0
-89 263 53 0
90 261 -91 0
90 -261 -94 0
-90 -261 94 0
-90 261 91 0
91 262 -92 0
91 -262 -93 0
-91 -262 93 0
-91 262 92 0
92 263 -57 0
92 -263 -59 0
-92 -263 59 0
-92 263 57 0
93 263 -60 0
93 -263 -64 0
-93 -263 64 0
-93 263 60 0
94 262 -95 0
-94 -262 0
-94 95 0
95 263 -65 0
95 -201 -263 264 0
-95 263 65 0
-95 -263 -264 0
-95 201 -263 0
-96 -5 0
-96 97 105 0
96 5 -105 0
96 5 -97 0
-97 260 98 0
-97 -260 102 0
97 -260 -102 0
97 260 -98 0
-98 261 99 0
-98 -261 101 0
98 -261 -101 0
98 261 -99 0
-99 262 100 0
-99 -262 70 0
99 -262 -70 0
99 262 -100 0
100 263 -41 0
100 -263 -39 0
-100 -263 39 0
-100 263 41 0
101 262 -71 0
101 -262 -73 0
-101 -262 73 0
-101 262 71 0
102 261 -103 0
102 -261 -104 0
-102 -261 104 0
-102 261 103 0
103 262 -74 0
103 -262 -77 0
-103 -262 77 0
-103 262 74 0
104 262 -78 0
-104 -262 0
-104 78 0
-105 260 106 0
-105 -260 110 0
105 -260 -110 0
105 260 -106 0
-106 261 107 0
-106 -261 109 0
106 -261 -109 0
106 261 -107 0
-107 262 108 0
-107 -262 48 0
107 -262 -48 0
107 262 -108 0
108 -263 -83 0
108 263 -86 0
-108 263 86 0
-108 -263 83 0
109 262 -51 0
109 -262 -55 0
-109 -262 55 0
-109 262 51 0
110 261 -111 0
110 -261 -112 0
-110 -261 112 0
-110 261 111 0
111 262 -58 0
111 -262 -63 0
-111 -262 63 0
-111 262 58 0
112 -201 262 263 264 0
-112 -264 0
-112 -263 0
-112 201 0
-112 -262 0
-113 114 129 139 4 0
113 -129 0
113 -4 0
113 -114 0
113 -139 0
-114 -115 116 0
-114 116 122 16 0
114 -116 0
114 115 -122 0
114 115 -16 0
-115 260 5 0
115 -260 0
115 -5 0
-116 -115 0
-116 117 120 121 0
116 -117 115 0
116 115 -120 0
116 115 -121 0
117 261 -118 0
117 -261 -119 0
-117 -261 119 0
-117 261 118 0
118 262 -89 0
118 -262 -92 0
-118 -262 92 0
-118 262 89 0
119 262 -93 0
119 -262 -95 0
-119 -262 95 0
-119 262 93 0
120 261 -54 0
120 -261 -62 0
-120 -261 62 0
-120 261 54 0
121 261 -72 0
121 -261 -76 0
-121 -261 76 0
-121 261 72 0
-122 110 123 124 127 0
122 -110 0
122 -127 0
122 -124 0
122 -123 0
-123 61 75 90 102 0
123 -102 0
123 -90 0
123 -61 0
123 -75 0
-124 125 126 0
124 -125 0
124 -126 0
125 261 -104 0
-125 -261 0
-125 104 0
126 261 -94 0
126 261 -17 0
-126 -261 0
-126 94 17 0
127 261 -119 0
127 261 -128 0
-127 -261 0
-127 119 128 0
128 -262 -18 0
128 262 -22 0
-128 262 22 0
-128 -262 18 0
-129 130 133 137 0
-129 -115 130 133 0
129 -133 0
129 -130 0
129 115 -137 0
130 260 5 -131 0
130 -260 5 -126 0
-130 -5 0
-130 -260 126 0
-130 260 131 0
131 -261 -91 0
131 261 -132 0
131 -261 -21 0
-131 261 132 0
-131 -261 91 21 0
-132 87 29 0
132 -87 0
132 -29 0
133 260 5 -134 0
133 -260 5 -136 0
-133 -5 0
-133 -260 136 0
-133 260 134 0
134 -261 -103 0
134 261 -135 0
134 -261 -111 0
-134 261 135 0
-134 -261 103 111 0
-135 101 109 0
135 -101 0
135 -109 0
-136 -261 0
-136 104 112 0
136 261 -104 0
136 261 -112 0
137 -261 -128 0
137 261 -138 0
-137 261 138 0
-137 -261 128 0
138 -262 -25 0
138 262 -33 0
-138 262 33 0
-138 -262 25 0
139 260 5 -140 0
139 -260 5 -127 0
-139 -5 0
-139 -260 127 0
-139 260 140 0
140 -261 -118 0
140 261 -141 0
140 -261 -138 0
-140 261 141 0
-140 -261 118 138 0
-141 142 143 0
141 -142 0
141 -143 0
142 262 -82 0
142 -262 -88 0
-142 -262 88 0
-142 262 82 0
143 -262 -30 0
143 262 -37 0
-143 262 37 0
-143 -262 30 0
144 260 5 -145 0
144 -260 5 -120 0
-144 -5 0
-144 260 145 0
-144 -260 120 0
-145 -261 47 0
-145 261 146 0
145 -261 -47 0
145 261 -146 0
-146 -262 108 0
-146 262 147 0
146 -262 -108 0
146 262 -147 0
-147 263 148 0
-147 -263 85 0
147 -263 -85 0
147 263 -148 0
148 -229 264 0
148 -228 -264 0
-148 229 264 0
-148 228 -264 0
149 150 -160 0
149 -150 155 -170 0
-149 -150 -155 0
-149 150 160 0
-149 -150 170 0
150 260 5 -151 0
150 -260 5 -121 0
-150 -5 0
-150 260 151 0
-150 -260 121 0
-151 -261 69 0
-151 261 152 0
151 -261 -69 0
151 261 -152 0
-152 -262 100 0
-152 262 153 0
152 -262 -100 0
152 262 -153 0
-153 263 154 0
-153 -263 42 0
153 -263 -42 0
153 263 -154 0
154 -230 264 0
154 -229 -264 0
-154 230 264 0
-154 229 -264 0
155 260 5 -156 0
155 -260 5 -117 0
-155 -5 0
-155 260 156 0
-155 -260 117 0
-156 -261 142 0
-156 261 157 0
156 -261 -142 0
156 261 -157 0
-157 -262 84 0
-157 262 158 0
157 -262 -84 0
157 262 -158 0
-158 263 159 0
-158 -263 148 0
158 -263 -148 0
158 263 -159 0
159 -231 264 0
159 -230 -264 0
-159 231 264 0
-159 230 -264 0
160 -155 -168 0
160 155 -161 0
-160 155 161 0
-160 -155 168 0
-161 232 162 0
-161 -162 167 0
-161 264 162 0
161 -162 -167 0
161 -232 -264 162 0
162 260 5 -163 0
162 -260 5 -137 0
-162 -5 0
-162 260 163 0
-162 -260 137 0
-163 -261 143 0
-163 261 164 0
163 -261 -143 0
163 261 -164 0
-164 -262 40 0
-164 262 165 0
164 -262 -40 0
164 262 -165 0
-165 263 166 0
-165 -263 154 0
165 -263 -154 0
165 263 -166 0
166 -232 264 0
166 -231 -264 0
-166 232 264 0
-166 231 -264 0
167 -231 -263 0
-167 231 0
-167 263 0
168 -162 -169 0
168 -230 -262 162 0
-168 230 162 0
-168 -162 169 0
-168 262 162 0
169 -229 -261 0
-169 229 0
-169 261 0
170 -228 -260 162 0
-170 228 0
-170 260 0
-170 -162 0
171 -232 4 172 -174 0
-171 174 0
-171 232 0
-171 -172 0
-171 -4 0
-172 44 114 129 173 0
172 -173 0
172 -44 0
172 -129 0
172 -114 0
-173 79 96 139 0
173 -79 0
173 -96 0
173 -139 0
174 144 -175 0
-174 -144 0
-174 175 0
-175 -150 -155 0
-175 150 176 0
-175 -150 179 0
175 150 -176 0
175 -150 155 -179 0
-176 155 177 0
-176 -155 178 0
176 -155 -178 0
176 155 -177 0
-177 264 162 0
-177 263 -162 0
177 -264 162 0
177 -263 -162 0
178 -262 162 0
178 -261 -162 0
-178 262 162 0
-178 261 -162 0
179 -260 162 0
-179 260 0
-179 -162 0
180 172 -181 0
-180 -172 0
-180 181 0
-181 182 184 -186 -190 0
-181 -182 -184 -186 -190 0
-181 182 184 186 190 0
-181 -182 -184 186 190 0
181 182 -184 0
181 -182 184 0
181 186 -190 0
181 -186 190 0
182 -230 4 144 -183 0
-182 183 0
-182 -144 0
-182 230 0
-182 -4 0
183 150 -155 -179 0
183 150 155 -178 0
-183 -150 0
-183 -155 179 0
-183 155 178 0
184 4 144 150 -185 0
-184 185 0
-184 -150 0
-184 -4 0
-184 -144 0
-185 -155 170 0
-185 155 168 0
185 155 -168 0
185 -155 -170 0
186 -231 4 144 -187 0
-186 187 0
-186 -144 0
-186 231 0
-186 -4 0
187 150 155 -189 0
187 150 -155 -188 0
-187 -150 0
-187 -155 188 0
-187 155 189 0
188 -261 162 0
188 -260 -162 0
-188 261 162 0
-188 260 -162 0
189 -263 162 0
189 -262 -162 0
-189 263 162 0
-189 262 -162 0
190 4 144 150 -191 0
-190 191 0
-190 -150 0
-190 -4 0
-190 -144 0
-191 155 192 0
-191 -155 194 0
191 -155 -194 0
191 155 -192 0
-192 231 162 0
-192 -162 193 0
-192 263 162 0
192 -162 -193 0
192 -231 -263 162 0
193 -230 -262 0
-193 230 0
-193 262 0
194 -162 -195 0
194 -229 -261 162 0
-194 229 162 0
-194 -162 195 0
-194 261 162 0
195 -228 -260 0
-195 228 0
-195 260 0
196 197 -199 0
196 -197 199 0
-196 -197 -199 0
-196 197 199 0
197 4 144 172 -198 0
-197 -4 0
-197 198 0
-197 -172 0
-197 -144 0
198 150 155 -194 0
-198 194 0
-198 -155 0
-198 -150 0
199 -229 4 172 -200 0
-199 200 0
-199 229 0
-199 -172 0
-199 -4 0
200 144 150 155 -188 0
-200 188 0
-200 -155 0
-200 -144 0
-200 -150 0
-265 0
2 0

